9
0 95 43 70 37 66 25 52 74
95 0 15 29 45 11 62 91 35
43 15 0 88 38 46 37 43 35
70 29 88 0 65 33 54 31 51
37 45 38 65 0 64 61 57 70
66 11 46 33 64 0 55 37 51
25 62 37 54 61 55 0 84 64
52 91 43 31 57 37 84 0 23
74 35 35 51 70 51 64 23 0
